datasets/2-dimensional/CL_07_25_10.vbp
2
150 150 
25
53 56 30
45 47 72
65 58 4
23 30 88
97 99 54
91 95 64
77 78 90
73 67 26
42 48 94
56 63 28
53 50 72
77 76 49
40 44 54
38 29 19
38 41 28
28 20 61
28 24 84
82 81 23
21 13 67
23 15 53
52 58 54
99 101 16
22 22 9
26 29 54
21 25 77
