datasets/2-dimensional/CL_07_25_10.txt
150 150 
0 30 53 56 
1 72 45 47 
2 4 65 58 
3 88 23 30 
4 54 97 99 
5 64 91 95 
6 90 77 78 
7 26 73 67 
8 94 42 48 
9 28 56 63 
10 72 53 50 
11 49 77 76 
12 54 40 44 
13 19 38 29 
14 28 38 41 
15 61 28 20 
16 84 28 24 
17 23 82 81 
18 67 21 13 
19 53 23 15 
20 54 52 58 
21 16 99 101 
22 9 22 22 
23 54 26 29 
24 77 21 25 
